c preprocessed version of 1jo8_graph, 58 vertices, 608 edges
p td 58 608
56 57
55 57
55 56
54 57
54 56
54 55
53 56
53 55
53 54
52 54
52 53
51 54
51 53
51 52
50 55
50 54
50 53
50 52
50 51
49 53
49 52
49 51
49 50
48 55
48 53
48 52
48 51
48 50
48 49
47 52
47 49
47 48
46 52
46 48
46 47
45 48
45 47
45 46
44 48
44 46
44 45
43 45
43 44
42 48
42 46
42 45
42 44
42 43
41 53
41 48
41 46
41 44
41 43
41 42
40 57
40 44
40 43
40 42
40 41
39 53
39 52
39 48
39 46
39 45
39 44
39 43
39 42
39 41
39 40
38 48
38 47
38 46
38 45
38 44
38 43
38 42
38 40
38 39
37 55
37 53
37 52
37 50
37 49
37 48
37 47
37 46
37 45
37 44
37 42
37 41
37 40
37 39
37 38
36 53
36 48
36 47
36 46
36 45
36 38
36 37
35 55
35 53
35 52
35 51
35 50
35 49
35 48
35 47
35 46
35 39
35 37
35 36
34 52
34 51
34 50
34 49
34 48
34 47
34 46
34 37
34 36
34 35
33 52
33 51
33 50
33 49
33 47
33 35
33 34
32 51
32 50
32 49
32 35
32 34
32 33
31 50
31 49
31 47
31 36
31 35
31 34
31 33
31 32
30 47
30 46
30 45
30 38
30 36
30 35
30 34
30 33
30 32
30 31
29 55
29 53
29 50
29 48
29 37
29 36
29 35
29 34
29 33
29 32
29 31
29 30
28 48
28 47
28 45
28 38
28 37
28 36
28 35
28 31
28 30
28 29
27 56
27 55
27 54
27 53
27 52
27 50
27 49
27 48
27 47
27 46
27 39
27 38
27 37
27 36
27 35
27 34
27 31
27 30
27 29
27 28
26 45
26 43
26 40
26 38
26 37
26 36
26 28
26 27
25 57
25 56
25 53
25 48
25 45
25 43
25 41
25 40
25 39
25 38
25 37
25 36
25 28
25 27
25 26
24 55
24 53
24 52
24 50
24 49
24 48
24 47
24 46
24 45
24 44
24 42
24 41
24 40
24 39
24 38
24 37
24 36
24 35
24 34
24 29
24 28
24 27
24 26
24 25
23 57
23 56
23 55
23 54
23 53
23 48
23 41
23 40
23 39
23 38
23 37
23 27
23 26
23 25
23 24
22 53
22 52
22 48
22 46
22 44
22 42
22 41
22 40
22 39
22 38
22 37
22 27
22 25
22 24
22 23
21 57
21 54
21 41
21 40
21 24
21 23
21 22
20 54
20 52
20 24
20 22
20 21
19 48
19 42
19 41
19 39
19 24
19 22
19 21
19 20
18 53
18 52
18 49
18 48
18 47
18 46
18 44
18 42
18 41
18 40
18 39
18 38
18 37
18 35
18 27
18 25
18 24
18 23
18 22
18 21
18 20
18 19
17 52
17 48
17 46
17 44
17 42
17 41
17 39
17 37
17 24
17 22
17 19
17 18
16 53
16 52
16 50
16 49
16 48
16 47
16 46
16 45
16 44
16 43
16 42
16 41
16 40
16 39
16 38
16 37
16 36
16 35
16 34
16 27
16 25
16 24
16 23
16 22
16 19
16 18
16 17
15 52
15 49
15 48
15 47
15 46
15 44
15 39
15 37
15 36
15 34
15 33
15 31
15 30
15 24
15 18
15 17
15 16
14 49
14 48
14 47
14 46
14 45
14 44
14 36
14 34
14 33
14 31
14 30
14 16
14 15
13 47
13 46
13 44
13 15
13 14
12 49
12 48
12 47
12 46
12 36
12 34
12 31
12 30
12 15
12 14
12 13
11 52
11 49
11 48
11 47
11 34
11 17
11 15
11 14
11 13
11 12
10 48
10 47
10 46
10 44
10 42
10 39
10 18
10 17
10 16
10 15
10 14
10 13
10 12
10 11
9 52
9 48
9 19
9 18
9 17
9 15
9 11
9 10
8 53
8 52
8 51
8 50
8 49
8 48
8 47
8 46
8 44
8 42
8 41
8 39
8 37
8 35
8 34
8 33
8 27
8 24
8 22
8 20
8 19
8 18
8 17
8 16
8 15
8 14
8 12
8 11
8 10
8 9
7 52
7 48
7 22
7 21
7 20
7 19
7 18
7 17
7 16
7 11
7 10
7 9
7 8
6 54
6 53
6 52
6 51
6 49
6 48
6 24
6 20
6 19
6 18
6 16
6 9
6 8
6 7
5 56
5 55
5 54
5 53
5 52
5 51
5 50
5 48
5 24
5 21
5 20
5 18
5 8
5 7
5 6
4 54
4 53
4 52
4 51
4 50
4 49
4 48
4 46
4 44
4 42
4 41
4 40
4 39
4 37
4 35
4 27
4 24
4 23
4 22
4 21
4 20
4 19
4 18
4 17
4 16
4 8
4 7
4 6
4 5
3 57
3 56
3 55
3 54
3 53
3 41
3 40
3 37
3 27
3 25
3 24
3 23
3 22
3 21
3 20
3 18
3 5
3 4
2 56
2 55
2 54
2 53
2 52
2 51
2 50
2 49
2 48
2 40
2 39
2 38
2 37
2 36
2 35
2 29
2 28
2 27
2 26
2 25
2 24
2 23
2 22
2 18
2 16
2 8
2 5
2 4
2 3
1 57
1 56
1 55
1 53
1 40
1 38
1 37
1 27
1 26
1 25
1 24
1 23
1 3
1 2
0 56
0 55
0 54
0 53
0 50
0 37
0 35
0 29
0 28
0 27
0 26
0 25
0 24
0 2
0 1
